zaligvinder/models/all_counting_bench/automatarklen/automatark/instance4132.smt2
(set-logic QF_SLIA)
(set-option :produce-models true)
(declare-const X String)
; LOG\s+spyblpatHost\x3Ais\x2Ephp
(assert (str.in_re X (re.++ (str.to_re "LOG") (re.+ (re.union (str.to_re " ") (str.to_re "\u{09}") (str.to_re "\u{0a}") (str.to_re "\u{0c}") (str.to_re "\u{0d}"))) (str.to_re "spyblpatHost:is.php\u{0a}"))))
; /\/AES\d+O\d+\.jsp\?[a-z0-9=\u{2b}\u{2f}]{20}/iU
(assert (not (str.in_re X (re.++ (str.to_re "//AES") (re.+ (re.range "0" "9")) (str.to_re "O") (re.+ (re.range "0" "9")) (str.to_re ".jsp?") ((_ re.loop 20 20) (re.union (re.range "a" "z") (re.range "0" "9") (str.to_re "=") (str.to_re "+") (str.to_re "/"))) (str.to_re "/iU\u{0a}")))))
(assert (> (str.len X) 10))
(check-sat)
